1674
28 72 87 61 49 19 29 14 41 92 77 40 23 79 85 58 16 69 45 35 25 88 83 96 39 94 2 18 46 20 56 95 38 57 80 11 99 89 27 15 4 50 53 17 70 9 52 74 1 51 22 26 6 75 24 43 55 54 82 33 31 3 47 76 68 91 10 64 30 42 73 60 62 5 65 97 34 84 90 67 78 12 21 93 63 32 48 71 98 86 81 59 36 13 44 37 7 66 8 
